8
30
3
24
6 10 0
5 12 0
2 8 0
33
5
6 19 0
5 9 0
7 3 1 1
7 9 0
4 8 1 1
2 2 3 1 2 3
2 6 5 1 2 3 4 5
7 7 5 1 2 3 4 5
4 2 2 1 2
8 1 8 1 2 3 4 5 6 7 8
1 19 1 1
5 16 1 1
5 9 5 1 2 3 4 5
8 1 6 1 2 3 4 5 6
5 7 1 1
6 17 3 1 2 3
8 2 6 1 2 3 4 5 6
1 11 9 1 2 3 4 5 6 7 8 9
8 19 14 1 2 3 4 5 6 7 8 9 10 11 12 13 14
8 2 2 1 2
1 3 10 1 2 3 4 5 6 7 8 9 10
1 18 11 1 2 3 4 5 6 7 8 9 10 11
2 2 19 1 2 3 4 5 6 7 8 9 10 11 12 13 14 15 16 17 18 19
2 10 9 1 2 3 4 5 6 7 8 9
2 6 10 1 2 3 4 5 6 7 8 9 10
6 4 8 1 2 3 4 5 6 7 8
6 2 20 1 2 3 4 5 6 7 8 9 10 11 12 13 14 15 16 17 18 19 20
3 12 13 1 2 3 4 5 6 7 8 9 10 11 12 13
5 18 2 1 2
7 9 4 1 2 3 4
5 16 20 1 2 3 4 5 6 7 8 9 10 11 12 13 14 15 16 17 18 19 20
5 6 27 1 2 3 4 5 6 7 8 9 10 11 12 13 14 15 16 17 18 19 20 21 22 23 24 25 26 27
4 5 12 1 2 3 4 5 6 7 8 9 10 11 12
1
19
3 5 0
8
10
7 5 0
3 15 0
8 4 0
1 7 2 1 2
6 2 0
1 13 0
6 9 3 1 2 3
7 7 1 1
14
8
7 10 0
6 13 0
4 13 1 1
4 16 0
3 13 0
2 8 2 1 2
1 14 1 1
1 7 5 1 2 3 4 5
8 5 2 1 2
7 14 3 1 2 3
3 2 9 1 2 3 4 5 6 7 8 9
3 7 8 1 2 3 4 5 6 7 8
8 5 3 1 2 3
6 14 3 1 2 3
5
57
3 9 0
5 13 0
7 7 0
6 9 2 1 2
5 10 0
6
26
5 18 0
6 20 0
2 8 1 1
3 7 1 1
7 11 1 1
2 2 1 1
3
16
1 16 0
8 7 0
8 8 1 1
1
38
6 13 0
1
26
5 4 0
2
35
2 11 0
2 14 0
2
26
6 10 0
2 17 0
1
18
4 10 0
1
57
3 8 0
1
3
5 4 0
1
53
1 2 0
1
47
6 19 0
1
39
4 4 0
1
33
2 2 0
1
51
2 18 0
1
32
7 17 0
1
12
6 4 0
1
5
6 20 0
1
21
6 18 0
1
22
1 4 0
1
35
2 17 0
1
63
8 16 0
1
21
5 5 0
1
22
1 12 0
1
46
4 7 0
